1-76-7-53-59-14-35-75-1
1-62-74-48-5-15-57-13-54-19-8-46-34-67-68-1
1-63-16-3-50-25-55-18-24-49-23-56-1
1-44-32-9-39-31-10-58-12-17-51-33-1
1-40-72-38-65-66-11-26-6-1
1-30-45-29-47-69-61-22-64-42-41-43-1
1-73-2-4-52-27-37-20-70-60-71-36-21-28-1